certificates/rado_a14_c110_N27.cnf
c Rad2 upper bound instance: x1 + 14*x2 - x3 = 110, interval [1,27]
p cnf 27 104
1 3 8 0
-1 -3 -8 0
1 9 17 0
-1 -9 -17 0
2 4 8 0
-2 -4 -8 0
2 9 18 0
-2 -9 -18 0
3 5 8 0
-3 -5 -8 0
3 9 19 0
-3 -9 -19 0
4 6 8 0
-4 -6 -8 0
4 9 20 0
-4 -9 -20 0
5 7 8 0
-5 -7 -8 0
5 9 21 0
-5 -9 -21 0
6 8 0
-6 -8 0
6 9 22 0
-6 -9 -22 0
7 8 9 0
-7 -8 -9 0
7 9 23 0
-7 -9 -23 0
8 10 0
-8 -10 0
8 9 24 0
-8 -9 -24 0
8 9 11 0
-8 -9 -11 0
9 25 0
-9 -25 0
8 10 12 0
-8 -10 -12 0
9 10 26 0
-9 -10 -26 0
8 11 13 0
-8 -11 -13 0
9 11 27 0
-9 -11 -27 0
8 12 14 0
-8 -12 -14 0
1 7 13 0
-1 -7 -13 0
8 13 15 0
-8 -13 -15 0
2 7 14 0
-2 -7 -14 0
8 14 16 0
-8 -14 -16 0
3 7 15 0
-3 -7 -15 0
8 15 17 0
-8 -15 -17 0
4 7 16 0
-4 -7 -16 0
8 16 18 0
-8 -16 -18 0
5 7 17 0
-5 -7 -17 0
8 17 19 0
-8 -17 -19 0
6 7 18 0
-6 -7 -18 0
8 18 20 0
-8 -18 -20 0
7 19 0
-7 -19 0
8 19 21 0
-8 -19 -21 0
7 8 20 0
-7 -8 -20 0
8 20 22 0
-8 -20 -22 0
7 9 21 0
-7 -9 -21 0
8 21 23 0
-8 -21 -23 0
7 10 22 0
-7 -10 -22 0
8 22 24 0
-8 -22 -24 0
7 11 23 0
-7 -11 -23 0
8 23 25 0
-8 -23 -25 0
7 12 24 0
-7 -12 -24 0
8 24 26 0
-8 -24 -26 0
7 13 25 0
-7 -13 -25 0
8 25 27 0
-8 -25 -27 0
7 14 26 0
-7 -14 -26 0
1 6 27 0
-1 -6 -27 0
7 15 27 0
-7 -15 -27 0
