certificates/rado_a14_c110_N27.drat
-25 -26 -27 0
-9 -26 0
d -9 -10 -26 0
-26 -27 0
d -25 -26 -27 0
24 -9 26 0
-9 -27 0
-27 0
9 26 0
d 9 10 26 0
26 0
-9 0
25 0
11 0
-24 0
8 0
-6 0
-10 0
-23 0
-13 0
1 0
22 0
7 0
-3 0
-20 0
-5 0
-19 0
-14 0
0
